b98:
11        21        3198      41        51        61        
12        2298      32        42        52        6        
13        23        33        43        53        63        
14        24        34        44        54        64        
15        25        35        45        55        65        

